proyfinal/src/viki/013/experimentInOfficeAgust.take6.output/b628a0e6-54c1-4ada-81d3-c26aac8720b1.als.dat
{'cnf.clauses': '118081',
 'cnf.totvars': '69608',
 'conflict literals': '549',
 'conflicts': '103',
 'decisions': '4555',
 'memused.mb': '16.02',
 'outcome': 'UNSAT',
 'propagations': '151116',
 'restarts': '1',
 'solver.msecs': 32,
 'task.msecs': 83}
