proyfinal/src/viki/013/experimentInOfficeAgust.take6.output/b628a0e6-54c1-4ada-81d3-c26aac8720b1.als.out
Reading from standard input... Use '--help' for help.
============================[ Problem Statistics ]=============================
|                                                                             |
|  Number of variables:         69608                                         |
|  Number of clauses:          118081                                         |
|  Parse time:                   0.02 s                                       |
|                                                                             |
============================[ Search Statistics ]==============================
| Conflicts |          ORIGINAL         |          LEARNT          | Progress |
|           |    Vars  Clauses Literals |    Limit  Clauses Lit/Cl |          |
===============================================================================
|       100 |   55080    81118   200674 |    29743       88      6 | 20.871 % |
===============================================================================
restarts              : 1
conflicts             : 103            (3211 /sec)
decisions             : 4555           (0.00 % random) (142006 /sec)
propagations          : 151116         (4711186 /sec)
conflict literals     : 549            (23.11 % deleted)
Memory used           : 16.02 MB
CPU time              : 0.032076 s

UNSATISFIABLE
